c This is a CNF SAT formula in the DIMACS CNF format,
c produced with the bc2cnf translator by Tommi Junttila;
c see http://users.ics.aalto.fi/tjunttil/circuits/index.html
c Y <-> 2
c Ripple8thbit <-> 3
c C6 <-> 4
c G06 <-> 7
c C5 <-> 8
c G05 <-> 11
c C4 <-> 12
c G04 <-> 15
c C3 <-> 16
c G03 <-> 19
c C2 <-> 20
c G02 <-> 23
c C1 <-> 24
c G01 <-> 27
c C0 <-> 28
c G00 <-> 31
c KSA8thbit <-> 32
c CK6 <-> 33
c G26 <-> 35
c G16 <-> 37
c P26 <-> 39
c P16 <-> 40
c G14 <-> 41
c P14 <-> 43
c CK2 <-> 44
c G12 <-> 46
c P12 <-> 48
c CK0 <-> 49
c P07 <-> 51
c A7 <-> 52
c P06 <-> 53
c A6 <-> 54
c P05 <-> 55
c A5 <-> 56
c P04 <-> 57
c A4 <-> 58
c P03 <-> 59
c A3 <-> 60
c P02 <-> 61
c A2 <-> 62
c P01 <-> 63
c A1 <-> 64
c P00 <-> 65
c A0 <-> 66
c FB7 <-> 67
c B7 <-> 68
c FB6 <-> 69
c B6 <-> 70
c FB5 <-> 71
c B5 <-> 72
c FB4 <-> 73
c B4 <-> 74
c FB3 <-> 75
c B3 <-> 76
c FB2 <-> 77
c B2 <-> 78
c FB1 <-> 79
c B1 <-> 80
c FB0 <-> 81
c B0 <-> 82
c ALUFN0 <-> 83
p cnf 83 226
1 52 -4 0
1 -52 4 0
-1 52 4 0
-1 -52 -4 0
2 32 -3 0
2 -32 3 0
-2 32 3 0
-2 -32 -3 0
2 0
3 67 -1 0
3 -67 1 0
-3 67 1 0
-3 -67 -1 0
4 -5 0
4 -6 0
4 -7 0
-4 7 6 5 0
-5 8 0
-5 69 0
5 -69 -8 0
-6 8 0
-6 54 0
6 -54 -8 0
-7 54 0
-7 69 0
7 -69 -54 0
8 -9 0
8 -10 0
8 -11 0
-8 11 10 9 0
-9 12 0
-9 71 0
9 -71 -12 0
-10 12 0
-10 56 0
10 -56 -12 0
-11 56 0
-11 71 0
11 -71 -56 0
12 -13 0
12 -14 0
12 -15 0
-12 15 14 13 0
-13 16 0
-13 73 0
13 -73 -16 0
-14 16 0
-14 58 0
14 -58 -16 0
-15 58 0
-15 73 0
15 -73 -58 0
16 -17 0
16 -18 0
16 -19 0
-16 19 18 17 0
-17 20 0
-17 75 0
17 -75 -20 0
-18 20 0
-18 60 0
18 -60 -20 0
-19 60 0
-19 75 0
19 -75 -60 0
20 -21 0
20 -22 0
20 -23 0
-20 23 22 21 0
-21 24 0
-21 77 0
21 -77 -24 0
-22 24 0
-22 62 0
22 -62 -24 0
-23 62 0
-23 77 0
23 -77 -62 0
24 -25 0
24 -26 0
24 -27 0
-24 27 26 25 0
-25 28 0
-25 79 0
25 -79 -28 0
-26 28 0
-26 64 0
26 -64 -28 0
-27 64 0
-27 79 0
27 -79 -64 0
28 -29 0
28 -30 0
28 -31 0
-28 31 30 29 0
-29 81 0
-29 83 0
29 -83 -81 0
-30 66 0
-30 83 0
30 -83 -66 0
-31 66 0
-31 81 0
31 -81 -66 0
32 51 -33 0
32 -51 33 0
-32 51 33 0
-32 -51 -33 0
33 -34 0
33 -35 0
-33 35 34 0
-34 39 0
-34 44 0
34 -44 -39 0
35 -36 0
35 -37 0
-35 37 36 0
-36 40 0
-36 41 0
36 -41 -40 0
37 -7 0
37 -38 0
-37 38 7 0
-38 11 0
-38 53 0
38 -53 -11 0
-39 40 0
-39 43 0
39 -43 -40 0
-40 53 0
-40 55 0
40 -55 -53 0
41 -15 0
41 -42 0
-41 42 15 0
-42 19 0
-42 57 0
42 -57 -19 0
-43 57 0
-43 59 0
43 -59 -57 0
44 -45 0
44 -46 0
-44 46 45 0
-45 48 0
-45 49 0
45 -49 -48 0
46 -23 0
46 -47 0
-46 47 23 0
-47 27 0
-47 61 0
47 -61 -27 0
-48 61 0
-48 63 0
48 -63 -61 0
49 -31 0
49 -50 0
-49 50 31 0
-50 65 0
-50 83 0
50 -83 -65 0
51 67 -52 0
51 -67 52 0
-51 67 52 0
-51 -67 -52 0
53 69 -54 0
53 -69 54 0
-53 69 54 0
-53 -69 -54 0
55 71 -56 0
55 -71 56 0
-55 71 56 0
-55 -71 -56 0
57 73 -58 0
57 -73 58 0
-57 73 58 0
-57 -73 -58 0
59 75 -60 0
59 -75 60 0
-59 75 60 0
-59 -75 -60 0
61 77 -62 0
61 -77 62 0
-61 77 62 0
-61 -77 -62 0
63 79 -64 0
63 -79 64 0
-63 79 64 0
-63 -79 -64 0
65 81 -66 0
65 -81 66 0
-65 81 66 0
-65 -81 -66 0
67 83 -68 0
67 -83 68 0
-67 83 68 0
-67 -83 -68 0
69 83 -70 0
69 -83 70 0
-69 83 70 0
-69 -83 -70 0
71 83 -72 0
71 -83 72 0
-71 83 72 0
-71 -83 -72 0
73 83 -74 0
73 -83 74 0
-73 83 74 0
-73 -83 -74 0
75 83 -76 0
75 -83 76 0
-75 83 76 0
-75 -83 -76 0
77 83 -78 0
77 -83 78 0
-77 83 78 0
-77 -83 -78 0
79 83 -80 0
79 -83 80 0
-79 83 80 0
-79 -83 -80 0
81 83 -82 0
81 -83 82 0
-81 83 82 0
-81 -83 -82 0
